; Options: -q --produce-models --incremental --print-success --lang smt2.6 --arrays-exp
(set-logic ALL)

(declare-fun start!2487 () Bool)

(assert start!2487)

(declare-fun b!13151 () Bool)

(declare-fun res!10380 () Bool)

(declare-fun e!7232 () Bool)

(assert (=> b!13151 (=> (not res!10380) (not e!7232))))

(declare-datatypes ((array!916 0))(
  ( (array!917 (arr!397 (Array (_ BitVec 32) (_ BitVec 32))) (size!397 (_ BitVec 32))) )
))
(declare-fun iq!194 () array!916)

(declare-datatypes ((array!918 0))(
  ( (array!919 (arr!398 (Array (_ BitVec 32) (_ FloatingPoint 11 53))) (size!398 (_ BitVec 32))) )
))
(declare-fun qq!48 () array!918)

(declare-fun jz!59 () (_ BitVec 32))

(assert (=> b!13151 (= res!10380 (and (bvsle (select (arr!397 iq!194) (bvsub jz!59 #b00000000000000000000000000000001)) #b00000000011111111111111111111111) (= (size!398 qq!48) #b00000000000000000000000000010100)))))

(declare-datatypes ((Unit!1416 0))(
  ( (Unit!1417) )
))
(declare-datatypes ((tuple4!276 0))(
  ( (tuple4!277 (_1!320 Unit!1416) (_2!320 array!916) (_3!252 (_ BitVec 32)) (_4!138 (_ FloatingPoint 11 53))) )
))
(declare-fun e!7236 () tuple4!276)

(declare-fun q!93 () array!918)

(declare-fun lt!6640 () array!916)

(declare-fun b!13152 () Bool)

(declare-fun lt!6637 () (_ FloatingPoint 11 53))

(declare-fun computeModuloWhile!0 ((_ BitVec 32) array!918 array!916 (_ BitVec 32) (_ FloatingPoint 11 53)) tuple4!276)

(assert (=> b!13152 (= e!7236 (computeModuloWhile!0 jz!59 q!93 lt!6640 jz!59 lt!6637))))

(declare-fun b!13153 () Bool)

(declare-fun res!10376 () Bool)

(assert (=> b!13153 (=> (not res!10376) (not e!7232))))

(declare-fun iqInv!0 (array!916) Bool)

(assert (=> b!13153 (= res!10376 (iqInv!0 iq!194))))

(declare-fun b!13154 () Bool)

(declare-fun Unit!1418 () Unit!1416)

(assert (=> b!13154 (= e!7236 (tuple4!277 Unit!1418 lt!6640 jz!59 lt!6637))))

(declare-fun b!13155 () Bool)

(declare-fun lt!6646 () (_ BitVec 32))

(declare-fun i!271 () (_ BitVec 32))

(assert (=> b!13155 (= e!7232 (and (not (= (bvand lt!6646 #b10000000000000000000000000000000) (bvand i!271 #b10000000000000000000000000000000))) (not (= (bvand lt!6646 #b10000000000000000000000000000000) (bvand (bvsub lt!6646 i!271) #b10000000000000000000000000000000)))))))

(assert (=> b!13155 (= lt!6646 (bvsub jz!59 #b00000000000000000000000000000001))))

(declare-datatypes ((tuple4!278 0))(
  ( (tuple4!279 (_1!321 Unit!1416) (_2!321 (_ BitVec 32)) (_3!253 array!916) (_4!139 (_ BitVec 32))) )
))
(declare-fun e!7230 () tuple4!278)

(declare-fun lt!6645 () (_ BitVec 32))

(declare-fun b!13156 () Bool)

(declare-fun lt!6641 () tuple4!276)

(declare-fun lt!6647 () (_ BitVec 32))

(declare-fun Unit!1419 () Unit!1416)

(assert (=> b!13156 (= e!7230 (tuple4!279 Unit!1419 lt!6647 (_2!320 lt!6641) lt!6645))))

(declare-datatypes ((tuple3!228 0))(
  ( (tuple3!229 (_1!322 Unit!1416) (_2!322 array!916) (_3!254 (_ BitVec 32))) )
))
(declare-fun e!7233 () tuple3!228)

(declare-fun b!13157 () Bool)

(declare-fun lt!6639 () (_ BitVec 32))

(declare-fun lt!6643 () tuple4!278)

(declare-fun Unit!1420 () Unit!1416)

(assert (=> b!13157 (= e!7233 (tuple3!229 Unit!1420 (array!917 (store (arr!397 (_3!253 lt!6643)) (bvsub jz!59 #b00000000000000000000000000000001) (ite (= (_4!139 lt!6643) #b00000000000000000000000000000000) (bvsub #b00000001000000000000000000000000 lt!6639) (bvsub #b00000000111111111111111111111111 lt!6639))) (size!397 (_3!253 lt!6643))) (_4!139 lt!6643)))))

(assert (=> b!13157 (= lt!6647 #b00000000000000000000000000000000)))

(declare-fun c!1599 () Bool)

(assert (=> b!13157 (= c!1599 (bvslt lt!6647 (bvsub jz!59 #b00000000000000000000000000000001)))))

(assert (=> b!13157 (= lt!6643 e!7230)))

(assert (=> b!13157 (= lt!6639 (select (arr!397 (_3!253 lt!6643)) (bvsub jz!59 #b00000000000000000000000000000001)))))

(declare-fun res!10383 () Bool)

(declare-fun e!7229 () Bool)

(assert (=> start!2487 (=> (not res!10383) (not e!7229))))

(assert (=> start!2487 (= res!10383 (and (bvsle #b00000000000000000000000000000010 jz!59) (bvslt jz!59 #b00000000000000000000000000010011)))))

(assert (=> start!2487 e!7229))

(assert (=> start!2487 true))

(declare-fun array_inv!346 (array!916) Bool)

(assert (=> start!2487 (array_inv!346 iq!194)))

(declare-fun array_inv!347 (array!918) Bool)

(assert (=> start!2487 (array_inv!347 qq!48)))

(assert (=> start!2487 (array_inv!347 q!93)))

(declare-fun b!13158 () Bool)

(declare-fun e!7231 () Bool)

(assert (=> b!13158 (= e!7229 e!7231)))

(declare-fun res!10379 () Bool)

(assert (=> b!13158 (=> (not res!10379) (not e!7231))))

(declare-fun lt!6642 () (_ FloatingPoint 11 53))

(assert (=> b!13158 (= res!10379 (and (fp.leq (fp #b0 #b00000000000 #b0000000000000000000000000000000000000000000000000000) lt!6642) (fp.lt lt!6642 (fp #b0 #b10000000010 #b0000000000000000000000000000000000000000000000000000))))))

(assert (=> b!13158 (= lt!6642 (fp.sub roundNearestTiesToEven (_4!138 lt!6641) (fp.mul roundNearestTiesToEven (fp #b0 #b10000000010 #b0000000000000000000000000000000000000000000000000000) ((_ to_fp 11 53) roundNearestTiesToEven (ite (fp.isNaN (fp.mul roundNearestTiesToEven (_4!138 lt!6641) (fp #b0 #b01111111100 #b0000000000000000000000000000000000000000000000000000))) #b0000000000000000000000000000000000000000000000000000000000000000 (ite (fp.gt (fp.mul roundNearestTiesToEven (_4!138 lt!6641) (fp #b0 #b01111111100 #b0000000000000000000000000000000000000000000000000000)) ((_ to_fp 11 53) roundTowardZero #b0111111111111111111111111111111111111111111111111111111111111111)) #b0111111111111111111111111111111111111111111111111111111111111111 (ite (fp.lt (fp.mul roundNearestTiesToEven (_4!138 lt!6641) (fp #b0 #b01111111100 #b0000000000000000000000000000000000000000000000000000)) ((_ to_fp 11 53) roundTowardZero #b1000000000000000000000000000000000000000000000000000000000000000)) #b1000000000000000000000000000000000000000000000000000000000000000 ((_ fp.to_sbv 64) roundTowardZero (fp.mul roundNearestTiesToEven (_4!138 lt!6641) (fp #b0 #b01111111100 #b0000000000000000000000000000000000000000000000000000))))))))))))

(assert (=> b!13158 (= lt!6641 e!7236)))

(declare-fun c!1601 () Bool)

(assert (=> b!13158 (= c!1601 (bvsgt jz!59 #b00000000000000000000000000000000))))

(assert (=> b!13158 (= lt!6637 (select (arr!398 q!93) jz!59))))

(assert (=> b!13158 (= lt!6640 (array!917 ((as const (Array (_ BitVec 32) (_ BitVec 32))) #b00000000000000000000000000000000) #b00000000000000000000000000010100))))

(declare-fun b!13159 () Bool)

(declare-fun res!10377 () Bool)

(assert (=> b!13159 (=> (not res!10377) (not e!7232))))

(declare-fun QInt!0 ((_ BitVec 32)) Bool)

(assert (=> b!13159 (= res!10377 (QInt!0 (select (arr!397 iq!194) (bvsub (bvsub jz!59 #b00000000000000000000000000000001) i!271))))))

(declare-fun b!13160 () Bool)

(assert (=> b!13160 (= e!7231 e!7232)))

(declare-fun res!10378 () Bool)

(assert (=> b!13160 (=> (not res!10378) (not e!7232))))

(declare-fun lt!6638 () tuple3!228)

(declare-fun lt!6644 () Bool)

(assert (=> b!13160 (= res!10378 (and (bvsle #b00000000000000000000000000000000 (select (arr!397 (_2!322 lt!6638)) (bvsub jz!59 #b00000000000000000000000000000001))) (bvsle (select (arr!397 (_2!322 lt!6638)) (bvsub jz!59 #b00000000000000000000000000000001)) #b00000000100000000000000000000000) (or (not lt!6644) (not (= (_3!254 lt!6638) #b00000000000000000000000000000000)) (not (= (select (arr!397 (_2!322 lt!6638)) (bvsub jz!59 #b00000000000000000000000000000001)) #b00000000100000000000000000000000))) (bvsle (select (arr!397 (_2!322 lt!6638)) (bvsub jz!59 #b00000000000000000000000000000001)) #b00000000011111111111111111111111) (bvsle #b00000000000000000000000000000000 i!271) (bvsle i!271 jz!59)))))

(assert (=> b!13160 (= lt!6638 e!7233)))

(declare-fun c!1600 () Bool)

(assert (=> b!13160 (= c!1600 lt!6644)))

(assert (=> b!13160 (= lt!6645 #b00000000000000000000000000000000)))

(assert (=> b!13160 (= lt!6644 (bvsge (select (arr!397 (_2!320 lt!6641)) (bvsub jz!59 #b00000000000000000000000000000001)) #b00000000100000000000000000000000))))

(declare-fun b!13161 () Bool)

(declare-fun res!10375 () Bool)

(assert (=> b!13161 (=> (not res!10375) (not e!7229))))

(declare-fun qInv!0 (array!918) Bool)

(assert (=> b!13161 (= res!10375 (qInv!0 q!93))))

(declare-fun b!13162 () Bool)

(declare-fun res!10382 () Bool)

(assert (=> b!13162 (=> (not res!10382) (not e!7232))))

(assert (=> b!13162 (= res!10382 (bvslt i!271 jz!59))))

(declare-fun b!13163 () Bool)

(declare-fun computeModuloWhile!3 ((_ BitVec 32) array!918 (_ BitVec 32) array!916 (_ BitVec 32)) tuple4!278)

(assert (=> b!13163 (= e!7230 (computeModuloWhile!3 jz!59 q!93 lt!6647 (_2!320 lt!6641) lt!6645))))

(declare-fun b!13164 () Bool)

(declare-fun Unit!1421 () Unit!1416)

(assert (=> b!13164 (= e!7233 (tuple3!229 Unit!1421 (_2!320 lt!6641) lt!6645))))

(declare-fun b!13165 () Bool)

(declare-fun res!10381 () Bool)

(assert (=> b!13165 (=> (not res!10381) (not e!7232))))

(declare-fun qqInv!0 (array!918) Bool)

(assert (=> b!13165 (= res!10381 (qqInv!0 qq!48))))

(assert (= (and start!2487 res!10383) b!13161))

(assert (= (and b!13161 res!10375) b!13158))

(assert (= (and b!13158 c!1601) b!13152))

(assert (= (and b!13158 (not c!1601)) b!13154))

(assert (= (and b!13158 res!10379) b!13160))

(assert (= (and b!13160 c!1600) b!13157))

(assert (= (and b!13160 (not c!1600)) b!13164))

(assert (= (and b!13157 c!1599) b!13163))

(assert (= (and b!13157 (not c!1599)) b!13156))

(assert (= (and b!13160 res!10378) b!13153))

(assert (= (and b!13153 res!10376) b!13151))

(assert (= (and b!13151 res!10380) b!13165))

(assert (= (and b!13165 res!10381) b!13162))

(assert (= (and b!13162 res!10382) b!13159))

(assert (= (and b!13159 res!10377) b!13155))

(declare-fun m!21123 () Bool)

(assert (=> b!13165 m!21123))

(declare-fun m!21125 () Bool)

(assert (=> b!13159 m!21125))

(assert (=> b!13159 m!21125))

(declare-fun m!21127 () Bool)

(assert (=> b!13159 m!21127))

(declare-fun m!21129 () Bool)

(assert (=> start!2487 m!21129))

(declare-fun m!21131 () Bool)

(assert (=> start!2487 m!21131))

(declare-fun m!21133 () Bool)

(assert (=> start!2487 m!21133))

(declare-fun m!21135 () Bool)

(assert (=> b!13157 m!21135))

(declare-fun m!21137 () Bool)

(assert (=> b!13157 m!21137))

(declare-fun m!21139 () Bool)

(assert (=> b!13158 m!21139))

(declare-fun m!21141 () Bool)

(assert (=> b!13160 m!21141))

(declare-fun m!21143 () Bool)

(assert (=> b!13160 m!21143))

(declare-fun m!21145 () Bool)

(assert (=> b!13153 m!21145))

(declare-fun m!21147 () Bool)

(assert (=> b!13163 m!21147))

(declare-fun m!21149 () Bool)

(assert (=> b!13151 m!21149))

(declare-fun m!21151 () Bool)

(assert (=> b!13152 m!21151))

(declare-fun m!21153 () Bool)

(assert (=> b!13161 m!21153))

(push 1)

(assert (not b!13152))

(assert (not b!13159))

(assert (not b!13153))

(assert (not b!13165))

(assert (not b!13161))

(assert (not start!2487))

(assert (not b!13163))

(check-sat)

(pop 1)

(push 1)

(check-sat)

(pop 1)

